(set-info :source |printed by MathSAT|)
(declare-fun |!{$(in_main#0)<array1.1>}| () (Array Int Int))
(declare-fun |!{$(in_main#0)<array1.1>}.next| () (Array Int Int))
(declare-fun |!{$(in_main#0)<array2.2>}| () (Array Int Int))
(declare-fun |!{$(in_main#0)<array2.2>}.next| () (Array Int Int))
(declare-fun |!{$(in_main#0)<N>}| () Int)
(declare-fun |!{$(in_main#0)<N>}.next| () Int)
(declare-fun |!{$(in_main#0)<j>}| () Int)
(declare-fun |!{$(in_main#0)<j>}.next| () Int)
(declare-fun |!{$(in_main#0)<k>}| () Int)
(declare-fun |!{$(in_main#0)<k>}.next| () Int)
(declare-fun |!{$(in_main#0)<k#1>}| () Int)
(declare-fun |!{$(in_main#0)<k#1>}.next| () Int)
(declare-fun |!{$(in_main#0)<$(in___VERIFIER_nondet_int#0)<h#<__VERIFIER_nondet_int.return>>>}| () Int)
(declare-fun |!{$(in_main#0)<$(in___VERIFIER_nondet_int#2)<h#<__VERIFIER_nondet_int.return>>>}| () Int)
(declare-fun |!{$(in_main#0)<$(in___VERIFIER_nondet_int#3)<h#<__VERIFIER_nondet_int.return>>>}| () Int)
(declare-fun !pc () Int)
(declare-fun !pc.next () Int)
(declare-fun |%{$(in_main#0)<j>}#1| () Int)
(declare-fun |%{$(in_main#0)<k#1>}#1| () Int)
(declare-fun |%{$(in_main#0)<array1.1>}#1| () (Array Int Int))
(declare-fun |%{$(in_main#0)<array2.2>}#1| () (Array Int Int))
(define-fun .def_37 () Int (! !pc :next !pc.next))
(define-fun .def_40 () Bool (! (= .def_37 2) :init true))
(define-fun .def_186 () Bool (= .def_37 41))
(define-fun .def_158 () Bool (= !pc.next 69))
(define-fun .def_189 () Bool (and .def_158 .def_186))
(define-fun .def_12 () Int (! |!{$(in_main#0)<N>}| :next |!{$(in_main#0)<N>}.next|))
(define-fun .def_181 () Bool (= .def_12 |!{$(in_main#0)<j>}.next|))
(define-fun .def_10 () (Array Int Int) (! |!{$(in_main#0)<array2.2>}| :next |!{$(in_main#0)<array2.2>}.next|))
(define-fun .def_92 () Bool (= .def_10 |!{$(in_main#0)<array2.2>}.next|))
(define-fun .def_8 () (Array Int Int) (! |!{$(in_main#0)<array1.1>}| :next |!{$(in_main#0)<array1.1>}.next|))
(define-fun .def_90 () Bool (= .def_8 |!{$(in_main#0)<array1.1>}.next|))
(define-fun .def_103 () Bool (and .def_90 .def_92))
(define-fun .def_94 () Bool (= .def_12 |!{$(in_main#0)<N>}.next|))
(define-fun .def_104 () Bool (and .def_94 .def_103))
(define-fun .def_182 () Bool (and .def_104 .def_181))
(define-fun .def_16 () Int (! |!{$(in_main#0)<k>}| :next |!{$(in_main#0)<k>}.next|))
(define-fun .def_98 () Bool (= .def_16 |!{$(in_main#0)<k>}.next|))
(define-fun .def_183 () Bool (and .def_98 .def_182))
(define-fun .def_18 () Int (! |!{$(in_main#0)<k#1>}| :next |!{$(in_main#0)<k#1>}.next|))
(define-fun .def_100 () Bool (= .def_18 |!{$(in_main#0)<k#1>}.next|))
(define-fun .def_184 () Bool (and .def_100 .def_183))
(define-fun .def_165 () Bool (<= .def_12 .def_16))
(define-fun .def_185 () Bool (and .def_165 .def_184))
(define-fun .def_190 () Bool (and .def_185 .def_189))
(define-fun .def_71 () Bool (= !pc.next 41))
(define-fun .def_187 () Bool (and .def_71 .def_186))
(define-fun .def_175 () Int (* (- 1) |!{$(in_main#0)<k>}.next|))
(define-fun .def_176 () Int (+ .def_16 .def_175))
(define-fun .def_177 () Bool (= .def_176 (- 1)))
(define-fun .def_168 () (Array Int Int) (store .def_10 .def_16 |!{$(in_main#0)<$(in___VERIFIER_nondet_int#3)<h#<__VERIFIER_nondet_int.return>>>}|))
(define-fun .def_171 () Bool (= |!{$(in_main#0)<array2.2>}.next| .def_168))
(define-fun .def_167 () (Array Int Int) (store .def_8 .def_16 |!{$(in_main#0)<$(in___VERIFIER_nondet_int#2)<h#<__VERIFIER_nondet_int.return>>>}|))
(define-fun .def_170 () Bool (= |!{$(in_main#0)<array1.1>}.next| .def_167))
(define-fun .def_172 () Bool (and .def_170 .def_171))
(define-fun .def_173 () Bool (and .def_94 .def_172))
(define-fun .def_14 () Int (! |!{$(in_main#0)<j>}| :next |!{$(in_main#0)<j>}.next|))
(define-fun .def_96 () Bool (= .def_14 |!{$(in_main#0)<j>}.next|))
(define-fun .def_174 () Bool (and .def_96 .def_173))
(define-fun .def_178 () Bool (and .def_174 .def_177))
(define-fun .def_179 () Bool (and .def_100 .def_178))
(define-fun .def_166 () Bool (not .def_165))
(define-fun .def_180 () Bool (and .def_166 .def_179))
(define-fun .def_188 () Bool (and .def_180 .def_187))
(define-fun .def_191 () Bool (or .def_188 .def_190))
(define-fun .def_157 () Bool (= .def_37 69))
(define-fun .def_125 () Bool (= !pc.next 83))
(define-fun .def_161 () Bool (and .def_125 .def_157))
(define-fun .def_153 () Bool (= |!{$(in_main#0)<k#1>}.next| 0))
(define-fun .def_105 () Bool (and .def_96 .def_104))
(define-fun .def_106 () Bool (and .def_98 .def_105))
(define-fun .def_154 () Bool (and .def_106 .def_153))
(define-fun .def_136 () Bool (<= .def_14 0))
(define-fun .def_155 () Bool (and .def_136 .def_154))
(define-fun .def_162 () Bool (and .def_155 .def_161))
(define-fun .def_159 () Bool (and .def_157 .def_158))
(define-fun .def_146 () Int (* (- 1) |!{$(in_main#0)<j>}.next|))
(define-fun .def_147 () Int (+ .def_14 .def_146))
(define-fun .def_148 () Bool (= .def_147 1))
(define-fun .def_139 () Int (* (- 1) .def_14))
(define-fun .def_140 () Int (+ .def_12 .def_139))
(define-fun .def_141 () Int (select .def_10 .def_140))
(define-fun .def_138 () Int (+ .def_14 (- 1)))
(define-fun .def_142 () (Array Int Int) (store .def_8 .def_138 .def_141))
(define-fun .def_143 () Bool (= |!{$(in_main#0)<array1.1>}.next| .def_142))
(define-fun .def_144 () Bool (and .def_92 .def_143))
(define-fun .def_145 () Bool (and .def_94 .def_144))
(define-fun .def_149 () Bool (and .def_145 .def_148))
(define-fun .def_150 () Bool (and .def_98 .def_149))
(define-fun .def_151 () Bool (and .def_100 .def_150))
(define-fun .def_137 () Bool (not .def_136))
(define-fun .def_152 () Bool (and .def_137 .def_151))
(define-fun .def_160 () Bool (and .def_152 .def_159))
(define-fun .def_163 () Bool (or .def_160 .def_162))
(define-fun .def_129 () Bool (= !pc.next 0))
(define-fun .def_120 () Bool (= .def_37 83))
(define-fun .def_130 () Bool (and .def_120 .def_129))
(define-fun .def_74 () Bool (<= .def_12 .def_18))
(define-fun .def_113 () Bool (and .def_74 .def_90))
(define-fun .def_114 () Bool (and .def_92 .def_113))
(define-fun .def_115 () Bool (and .def_94 .def_114))
(define-fun .def_116 () Bool (and .def_96 .def_115))
(define-fun .def_117 () Bool (and .def_98 .def_116))
(define-fun .def_118 () Bool (and .def_100 .def_117))
(define-fun .def_131 () Bool (and .def_118 .def_130))
(define-fun .def_126 () Bool (and .def_120 .def_125))
(define-fun .def_107 () Int (* (- 1) |!{$(in_main#0)<k#1>}.next|))
(define-fun .def_108 () Int (+ .def_18 .def_107))
(define-fun .def_109 () Bool (= .def_108 (- 1)))
(define-fun .def_110 () Bool (and .def_106 .def_109))
(define-fun .def_78 () Int (* (- 1) .def_18))
(define-fun .def_79 () Int (+ .def_12 .def_78))
(define-fun .def_81 () Int (+ .def_79 (- 1)))
(define-fun .def_82 () Int (select .def_10 .def_81))
(define-fun .def_76 () Int (select .def_8 .def_18))
(define-fun .def_83 () Bool (= .def_76 .def_82))
(define-fun .def_84 () Int (ite .def_83 1 0))
(define-fun .def_85 () Bool (= .def_84 0))
(define-fun .def_86 () Bool (not .def_85))
(define-fun .def_111 () Bool (and .def_86 .def_110))
(define-fun .def_75 () Bool (not .def_74))
(define-fun .def_112 () Bool (and .def_75 .def_111))
(define-fun .def_127 () Bool (and .def_112 .def_126))
(define-fun .def_122 () Bool (= !pc.next 103))
(define-fun .def_123 () Bool (and .def_120 .def_122))
(define-fun .def_91 () Bool (and .def_85 .def_90))
(define-fun .def_93 () Bool (and .def_91 .def_92))
(define-fun .def_95 () Bool (and .def_93 .def_94))
(define-fun .def_97 () Bool (and .def_95 .def_96))
(define-fun .def_99 () Bool (and .def_97 .def_98))
(define-fun .def_101 () Bool (and .def_99 .def_100))
(define-fun .def_102 () Bool (and .def_75 .def_101))
(define-fun .def_124 () Bool (and .def_102 .def_123))
(define-fun .def_128 () Bool (or .def_124 .def_127))
(define-fun .def_132 () Bool (or .def_128 .def_131))
(define-fun .def_72 () Bool (and .def_40 .def_71))
(define-fun .def_67 () Bool (= |!{$(in_main#0)<k#1>}.next| |%{$(in_main#0)<k#1>}#1|))
(define-fun .def_65 () Bool (= |!{$(in_main#0)<k>}.next| 0))
(define-fun .def_63 () Bool (= |!{$(in_main#0)<j>}.next| |%{$(in_main#0)<j>}#1|))
(define-fun .def_61 () Bool (= |!{$(in_main#0)<N>}.next| |!{$(in_main#0)<$(in___VERIFIER_nondet_int#0)<h#<__VERIFIER_nondet_int.return>>>}|))
(define-fun .def_59 () Bool (= |!{$(in_main#0)<array2.2>}.next| |%{$(in_main#0)<array2.2>}#1|))
(define-fun .def_58 () Bool (= |!{$(in_main#0)<array1.1>}.next| |%{$(in_main#0)<array1.1>}#1|))
(define-fun .def_60 () Bool (and .def_58 .def_59))
(define-fun .def_62 () Bool (and .def_60 .def_61))
(define-fun .def_64 () Bool (and .def_62 .def_63))
(define-fun .def_66 () Bool (and .def_64 .def_65))
(define-fun .def_68 () Bool (and .def_66 .def_67))
(define-fun .def_53 () Bool (<= |!{$(in_main#0)<$(in___VERIFIER_nondet_int#0)<h#<__VERIFIER_nondet_int.return>>>}| 0))
(define-fun .def_54 () Bool (not .def_53))
(define-fun .def_55 () Int (ite .def_54 1 0))
(define-fun .def_56 () Bool (= .def_55 0))
(define-fun .def_57 () Bool (not .def_56))
(define-fun .def_69 () Bool (and .def_57 .def_68))
(define-fun .def_73 () Bool (and .def_69 .def_72))
(define-fun .def_133 () Bool (or .def_73 .def_132))
(define-fun .def_164 () Bool (or .def_133 .def_163))
(define-fun .def_192 () Bool (! (or .def_164 .def_191) :trans true))
(define-fun .def_134 () Bool (= .def_37 103))
(define-fun .def_193 () Bool (! (not .def_134) :invar-property 0 :invar-property-name ||))
(assert true)
